NAME : XML100_3246_16
DIMENSION : 101
NB_CLUSTERS : 3
CLUSTERING_ALG : KMedoids
CLUSTERING_PARAMS : k(2)
CLUSTERS
1 0
2 1 3 6 7 8 12 13 16 20 22 26 28 31 34 35 39 40 44 46 47 52 59 60 63 67 69 72 73 76 80 82 85
3 2 4 5 9 10 11 14 15 17 18 19 21 23 24 25 27 29 30 32 33 36 37 38 41 42 43 45 48 49 50 51 53 54 55 56 57 58 61 62 64 65 66 68 70 71 74 75 77 78 79 81 83 84 86 87 88 89 90 91 92 93 94 95 96 97 98 99 100
EOF